This is Ipopt version 3.10.0, running with linear solver ma27.

Number of nonzeros in equality constraint Jacobian...:        0
Number of nonzeros in inequality constraint Jacobian.:       48
Number of nonzeros in Lagrangian Hessian.............:        0

Total number of variables............................:        6
                     variables with only lower bounds:        3
                variables with lower and upper bounds:        3
                     variables with only upper bounds:        0
Total number of equality constraints.................:        0
Total number of inequality constraints...............:        8
        inequality constraints with only lower bounds:        0
   inequality constraints with lower and upper bounds:        0
        inequality constraints with only upper bounds:        8

iter    objective    inf_pr   inf_du lg(mu)  ||d||  lg(rg) alpha_du alpha_pr  ls
   0  3.8327844e+00 3.01e+00 1.25e+00   0.0 0.00e+00    -  0.00e+00 0.00e+00   0
   1  5.5885331e+00 1.02e+00 5.23e+00  -0.3 2.39e+00    -  6.02e-01 1.00e+00f  1
   2  6.4544350e+00 3.60e-01 2.04e+00  -0.3 1.05e+00    -  8.54e-01 8.77e-01h  1
   3  6.8168503e+00 2.38e-01 2.10e+00  -0.8 3.79e-01    -  9.22e-01 6.02e-01h  1
   4  6.4377697e+00 5.06e-01 1.78e+01  -1.4 7.38e-01    -  1.00e+00 1.00e+00H  1
   5  6.3603759e+00 2.19e-01 1.49e+00  -1.1 2.23e-01    -  1.00e+00 8.82e-01h  1
   6  6.4957880e+00 5.10e-02 1.57e+00  -1.5 2.65e-01    -  9.55e-01 9.75e-01h  1
   7  6.2299365e+00 2.96e-02 6.70e-01  -2.4 1.17e-01    -  1.00e+00 1.00e+00h  1
   8  6.1606795e+00 1.48e-02 9.80e-01  -2.1 2.19e-01    -  1.00e+00 7.28e-01h  1
   9  6.1375937e+00 1.07e-02 6.87e-01  -2.8 1.48e-01    -  1.00e+00 3.50e-01h  1
iter    objective    inf_pr   inf_du lg(mu)  ||d||  lg(rg) alpha_du alpha_pr  ls
  10  6.1318132e+00 2.47e-04 1.63e-01  -2.8 1.45e-02    -  1.00e+00 9.41e-01h  1
  11  6.1281341e+00 0.00e+00 2.48e-01  -4.3 6.88e-03    -  1.00e+00 1.00e+00h  1
  12  6.1251724e+00 1.22e-04 2.83e-01  -5.0 7.37e-03    -  1.00e+00 9.67e-01h  1
  13  6.1233422e+00 0.00e+00 2.31e-01  -6.3 8.59e-03    -  1.00e+00 1.00e+00h  1
  14  6.1231768e+00 6.50e-03 1.16e+00  -6.5 5.82e-02    -  1.00e+00 1.00e+00h  1
  15  6.1222910e+00 3.29e-03 1.32e-01  -6.3 4.72e-02    -  1.00e+00 1.00e+00h  1
  16  6.1231964e+00 9.45e-04 1.50e-01  -7.7 6.23e-03    -  1.00e+00 1.00e+00h  1
  17  6.1264157e+00 1.86e-04 1.78e-01  -8.7 3.16e-03    -  1.00e+00 1.00e+00h  1

Number of Iterations....: 17

                                   (scaled)                 (unscaled)
Objective...............:   6.1264156890338102e+00    6.1264156890338102e+00
Dual infeasibility......:   1.7805739909715329e-01    1.7805739909715329e-01
Constraint violation....:   1.8626020605305057e-04    1.8626020605305057e-04
Complementarity.........:   2.1829261065517792e-09    2.1829261065517792e-09
Overall NLP error.......:   1.7805739909715329e-01    1.7805739909715329e-01


Number of objective function evaluations             = 19
Number of objective gradient evaluations             = 18
Number of equality constraint evaluations            = 0
Number of inequality constraint evaluations          = 19
Number of equality constraint Jacobian evaluations   = 0
Number of inequality constraint Jacobian evaluations = 18
Number of Lagrangian Hessian evaluations             = 0
Total CPU secs in IPOPT (w/o function evaluations)   =      0.018
Total CPU secs in NLP function evaluations           =    332.953

EXIT: Stopping optimization at current point as requested by user.
